177003
67,15,32,26,29,2,56,48,33,11,46,42,22,59,71,80,37,39,16,19,75,66,13,9,44,12,36,17,63,0,28,72,53,25,35,65,70,18,23,43,74,47,30,64,49,51,38,3,62,40,52,21,31,4,20,45,69,79,61,8,73,57,76,6,50,55,81,10,1,54,34,7,27,82,77,41,78,14,68,24,5,60,58
